
Gurobi 10.0.1 (win64) logging started Sat Dec 30 18:20:43 2023

Set parameter LogFile to value "outputs/THESIS/symmetry1/gurobi/20weeks.txt"

Gurobi 10.0.1 (win64) logging started Sat Dec 30 18:20:50 2023

Set parameter LogFile to value "outputs/THESIS/symmetry1/gurobi/20weeks.txt"
Gurobi Optimizer version 10.0.1 build v10.0.1rc0 (win64)

CPU model: AMD Ryzen 7 5700U with Radeon Graphics, instruction set [SSE2|AVX|AVX2]
Thread count: 8 physical cores, 16 logical processors, using up to 16 threads

Optimize a model with 426722 rows, 574669 columns and 1868269 nonzeros
Model fingerprint: 0xf6fbaee6
Coefficient statistics:
  Matrix range     [1e-04, 1e+04]
  Objective range  [1e+00, 1e+00]
  Bounds range     [1e+02, 7e+04]
  RHS range        [1e+03, 7e+04]
Presolve removed 2 rows and 2 columns
Presolve time: 0.86s
Presolved: 426720 rows, 574667 columns, 1441440 nonzeros

Ordering time: 0.03s

Barrier statistics:
 Dense cols : 20
 AA' NZ     : 2.822e+05
 Factor NZ  : 2.796e+06 (roughly 200 MB of memory)
 Factor Ops : 6.976e+07 (less than 1 second per iteration)
 Threads    : 8

                  Objective                Residual
Iter       Primal          Dual         Primal    Dual     Compl     Time
   0   7.58897979e+09 -4.89104814e+10  2.25e+04 9.42e+00  9.45e+05     2s
   1   1.58012859e+09 -3.75126522e+10  1.84e+03 1.76e+00  1.16e+05     2s
   2   1.02861206e+09 -8.20983259e+09  3.11e+00 1.22e-01  1.65e+04     2s
   3   2.01382858e+08 -3.00457922e+08  9.09e-12 1.33e-13  8.91e+02     2s
   4   8.82624666e+07 -2.78322104e+07  4.37e-11 1.64e-14  2.06e+02     2s
   5   6.23304237e+07 -6.87001816e+06  1.02e-10 1.12e-14  1.23e+02     3s
   6   4.53099644e+07  1.94018915e+06  6.80e-10 9.81e-15  7.69e+01     3s
   7   3.67682801e+07  5.28711755e+06  1.11e-09 9.24e-15  5.58e+01     3s
   8   3.59134425e+07  5.95587162e+06  1.20e-09 9.19e-15  5.31e+01     3s
   9   3.43252207e+07  6.43917419e+06  6.30e-09 9.16e-15  4.94e+01     3s
  10   3.00999033e+07  7.67416464e+06  1.28e-08 8.87e-15  3.97e+01     3s
  11   2.61811918e+07  8.76690897e+06  1.23e-08 9.38e-15  3.09e+01     3s
  12   2.43165903e+07  9.17358942e+06  1.55e-08 8.85e-15  2.68e+01     3s
  13   2.24380241e+07  9.56495523e+06  3.91e-08 9.52e-15  2.28e+01     3s
  14   1.95967892e+07  1.05046991e+07  4.83e-08 9.17e-15  1.61e+01     4s
  15   1.70477303e+07  1.12749836e+07  6.78e-08 8.35e-15  1.02e+01     4s
  16   1.64951047e+07  1.16007787e+07  5.66e-08 1.07e-14  8.67e+00     4s
  17   1.58647485e+07  1.17288362e+07  5.17e-08 9.04e-15  7.33e+00     4s
  18   1.52471964e+07  1.20270709e+07  2.88e-08 9.12e-15  5.71e+00     4s
  19   1.47029958e+07  1.22443258e+07  7.89e-08 9.78e-15  4.36e+00     4s
  20   1.45398104e+07  1.23532478e+07  9.33e-08 8.68e-15  3.87e+00     4s
  21   1.40369886e+07  1.24232144e+07  1.04e-07 8.47e-15  2.86e+00     5s
  22   1.36494259e+07  1.25192682e+07  9.54e-08 8.65e-15  2.00e+00     5s
  23   1.34694904e+07  1.26136064e+07  3.47e-08 9.48e-15  1.52e+00     5s
  24   1.32093245e+07  1.26623537e+07  1.06e-07 1.06e-14  9.69e-01     5s
  25   1.31919243e+07  1.26692602e+07  8.46e-08 1.04e-14  9.26e-01     5s
  26   1.31266016e+07  1.26741734e+07  6.91e-08 9.24e-15  8.02e-01     5s
  27   1.30726192e+07  1.26918253e+07  8.39e-08 1.02e-14  6.75e-01     5s
  28   1.29058779e+07  1.27064047e+07  1.32e-07 9.67e-15  3.53e-01     5s
  29   1.28352071e+07  1.27157815e+07  9.71e-08 8.91e-15  2.12e-01     5s
  30   1.27947474e+07  1.27262154e+07  1.47e-07 9.70e-15  1.21e-01     6s
  31   1.27808853e+07  1.27295871e+07  1.83e-07 9.49e-15  9.09e-02     6s
  32   1.27667561e+07  1.27323033e+07  2.10e-07 1.07e-14  6.10e-02     6s
  33   1.27550676e+07  1.27334239e+07  1.32e-07 9.11e-15  3.83e-02     6s
  34   1.27481846e+07  1.27340431e+07  8.58e-08 1.42e-14  2.51e-02     6s
  35   1.27445855e+07  1.27344733e+07  6.18e-08 9.55e-15  1.79e-02     6s
  36   1.27380347e+07  1.27349261e+07  1.76e-08 9.96e-15  5.51e-03     6s
  37   1.27360367e+07  1.27351093e+07  4.25e-09 9.99e-15  1.64e-03     6s
  38   1.27355644e+07  1.27352596e+07  1.29e-09 1.08e-14  5.40e-04     6s
  39   1.27353891e+07  1.27353130e+07  2.57e-10 1.03e-14  1.35e-04     7s
  40   1.27353480e+07  1.27353367e+07  3.09e-11 6.14e-12  2.00e-05     7s
  41   1.27353440e+07  1.27353406e+07  1.00e-11 6.28e-12  6.15e-06     7s
  42   1.27353420e+07  1.27353418e+07  7.28e-12 3.82e-12  2.53e-07     7s
  43   1.27353419e+07  1.27353419e+07  1.68e-11 4.62e-11  6.13e-12     7s

Barrier solved model in 43 iterations and 6.94 seconds (5.24 work units)
Optimal objective 1.27353419e+07

Crossover log...

    7381 DPushes remaining with DInf 0.0000000e+00                 7s
       0 DPushes remaining with DInf 0.0000000e+00                 7s

    1118 PPushes remaining with PInf 0.0000000e+00                 7s
       0 PPushes remaining with PInf 0.0000000e+00                 7s

  Push phase complete: Pinf 0.0000000e+00, Dinf 2.4380252e-10      7s

Iteration    Objective       Primal Inf.    Dual Inf.      Time
    5186    1.2735342e+07   0.000000e+00   0.000000e+00      7s

Use crossover to convert LP symmetric solution to basic solution...
Crossover log...

    4388 DPushes remaining with DInf 0.0000000e+00                 8s
       0 DPushes remaining with DInf 0.0000000e+00                 9s

  229795 PPushes remaining with PInf 0.0000000e+00                 9s
       0 PPushes remaining with PInf 0.0000000e+00                10s

  Push phase complete: Pinf 0.0000000e+00, Dinf 1.8728320e+02     10s

Iteration    Objective       Primal Inf.    Dual Inf.      Time
  239281    1.2735342e+07   0.000000e+00   1.872832e+02     10s
  239297    1.2735342e+07   0.000000e+00   0.000000e+00     11s

Solved in 239297 iterations and 10.81 seconds (9.21 work units)
Optimal objective  1.273534193e+07

User-callback calls 243524, time in user-callback 0.05 sec

Gurobi 10.0.1 (win64) logging started Sat Dec 30 18:21:03 2023

Set parameter LogFile to value "outputs/THESIS/symmetry1/gurobi/20weeks.txt"

Gurobi 10.0.1 (win64) logging started Sat Dec 30 18:21:11 2023

Set parameter LogFile to value "outputs/THESIS/symmetry1/gurobi/20weeks.txt"
Gurobi Optimizer version 10.0.1 build v10.0.1rc0 (win64)

CPU model: AMD Ryzen 7 5700U with Radeon Graphics, instruction set [SSE2|AVX|AVX2]
Thread count: 8 physical cores, 16 logical processors, using up to 16 threads

Optimize a model with 426722 rows, 574669 columns and 1868269 nonzeros
Model fingerprint: 0xf6fbaee6
Coefficient statistics:
  Matrix range     [1e-04, 1e+04]
  Objective range  [1e+00, 1e+00]
  Bounds range     [1e+02, 7e+04]
  RHS range        [1e+03, 7e+04]
Presolve removed 2 rows and 2 columns
Presolve time: 0.88s
Presolved: 426720 rows, 574667 columns, 1441440 nonzeros

Ordering time: 0.02s

Barrier statistics:
 Dense cols : 20
 AA' NZ     : 2.822e+05
 Factor NZ  : 2.796e+06 (roughly 200 MB of memory)
 Factor Ops : 6.976e+07 (less than 1 second per iteration)
 Threads    : 8

                  Objective                Residual
Iter       Primal          Dual         Primal    Dual     Compl     Time
   0   7.58897979e+09 -4.89104814e+10  2.25e+04 9.42e+00  9.45e+05     2s
   1   1.58012859e+09 -3.75126522e+10  1.84e+03 1.76e+00  1.16e+05     2s
   2   1.02861206e+09 -8.20983259e+09  3.11e+00 1.22e-01  1.65e+04     2s
   3   2.01382858e+08 -3.00457922e+08  9.09e-12 1.33e-13  8.91e+02     2s
   4   8.82624666e+07 -2.78322104e+07  4.37e-11 1.64e-14  2.06e+02     2s
   5   6.23304237e+07 -6.87001816e+06  1.02e-10 1.12e-14  1.23e+02     3s
   6   4.53099644e+07  1.94018915e+06  6.80e-10 9.81e-15  7.69e+01     3s
   7   3.67682801e+07  5.28711755e+06  1.11e-09 9.24e-15  5.58e+01     3s
   8   3.59134425e+07  5.95587162e+06  1.20e-09 9.19e-15  5.31e+01     3s
   9   3.43252207e+07  6.43917419e+06  6.30e-09 9.16e-15  4.94e+01     3s
  10   3.00999033e+07  7.67416464e+06  1.28e-08 8.87e-15  3.97e+01     3s
  11   2.61811918e+07  8.76690897e+06  1.23e-08 9.38e-15  3.09e+01     3s
  12   2.43165903e+07  9.17358942e+06  1.55e-08 8.85e-15  2.68e+01     3s
  13   2.24380241e+07  9.56495523e+06  3.91e-08 9.52e-15  2.28e+01     3s
  14   1.95967892e+07  1.05046991e+07  4.83e-08 9.17e-15  1.61e+01     4s
  15   1.70477303e+07  1.12749836e+07  6.78e-08 8.35e-15  1.02e+01     4s
  16   1.64951047e+07  1.16007787e+07  5.66e-08 1.07e-14  8.67e+00     4s
  17   1.58647485e+07  1.17288362e+07  5.17e-08 9.04e-15  7.33e+00     4s
  18   1.52471964e+07  1.20270709e+07  2.88e-08 9.12e-15  5.71e+00     4s
  19   1.47029958e+07  1.22443258e+07  7.89e-08 9.78e-15  4.36e+00     4s
  20   1.45398104e+07  1.23532478e+07  9.33e-08 8.68e-15  3.87e+00     4s
  21   1.40369886e+07  1.24232144e+07  1.04e-07 8.47e-15  2.86e+00     5s
  22   1.36494259e+07  1.25192682e+07  9.54e-08 8.65e-15  2.00e+00     5s
  23   1.34694904e+07  1.26136064e+07  3.47e-08 9.48e-15  1.52e+00     5s
  24   1.32093245e+07  1.26623537e+07  1.06e-07 1.06e-14  9.69e-01     5s
  25   1.31919243e+07  1.26692602e+07  8.46e-08 1.04e-14  9.26e-01     5s
  26   1.31266016e+07  1.26741734e+07  6.91e-08 9.24e-15  8.02e-01     5s
  27   1.30726192e+07  1.26918253e+07  8.39e-08 1.02e-14  6.75e-01     5s
  28   1.29058779e+07  1.27064047e+07  1.32e-07 9.67e-15  3.53e-01     5s
  29   1.28352071e+07  1.27157815e+07  9.71e-08 8.91e-15  2.12e-01     6s
  30   1.27947474e+07  1.27262154e+07  1.47e-07 9.70e-15  1.21e-01     6s
  31   1.27808853e+07  1.27295871e+07  1.83e-07 9.49e-15  9.09e-02     6s
  32   1.27667561e+07  1.27323033e+07  2.10e-07 1.07e-14  6.10e-02     6s
  33   1.27550676e+07  1.27334239e+07  1.32e-07 9.11e-15  3.83e-02     6s
  34   1.27481846e+07  1.27340431e+07  8.58e-08 1.42e-14  2.51e-02     6s
  35   1.27445855e+07  1.27344733e+07  6.18e-08 9.55e-15  1.79e-02     6s
  36   1.27380347e+07  1.27349261e+07  1.76e-08 9.96e-15  5.51e-03     6s
  37   1.27360367e+07  1.27351093e+07  4.25e-09 9.99e-15  1.64e-03     6s
  38   1.27355644e+07  1.27352596e+07  1.29e-09 1.08e-14  5.40e-04     6s
  39   1.27353891e+07  1.27353130e+07  2.57e-10 1.03e-14  1.35e-04     7s
  40   1.27353480e+07  1.27353367e+07  3.09e-11 6.14e-12  2.00e-05     7s
  41   1.27353440e+07  1.27353406e+07  1.00e-11 6.28e-12  6.15e-06     7s
  42   1.27353420e+07  1.27353418e+07  7.28e-12 3.82e-12  2.53e-07     7s
  43   1.27353419e+07  1.27353419e+07  1.68e-11 4.62e-11  6.13e-12     7s

Barrier solved model in 43 iterations and 6.95 seconds (5.24 work units)
Optimal objective 1.27353419e+07

Crossover log...

    7381 DPushes remaining with DInf 0.0000000e+00                 7s
       0 DPushes remaining with DInf 0.0000000e+00                 7s

    1118 PPushes remaining with PInf 0.0000000e+00                 7s
       0 PPushes remaining with PInf 0.0000000e+00                 7s

  Push phase complete: Pinf 0.0000000e+00, Dinf 2.4380252e-10      7s

Iteration    Objective       Primal Inf.    Dual Inf.      Time
    5186    1.2735342e+07   0.000000e+00   0.000000e+00      8s

Use crossover to convert LP symmetric solution to basic solution...
Crossover log...

    4388 DPushes remaining with DInf 0.0000000e+00                 8s
       0 DPushes remaining with DInf 0.0000000e+00                 9s

  229795 PPushes remaining with PInf 0.0000000e+00                 9s
       0 PPushes remaining with PInf 0.0000000e+00                10s

  Push phase complete: Pinf 0.0000000e+00, Dinf 1.8728320e+02     10s

Iteration    Objective       Primal Inf.    Dual Inf.      Time
  239281    1.2735342e+07   0.000000e+00   1.872832e+02     10s
  239297    1.2735342e+07   0.000000e+00   0.000000e+00     11s

Solved in 239297 iterations and 10.73 seconds (9.21 work units)
Optimal objective  1.273534193e+07

User-callback calls 243517, time in user-callback 0.03 sec

Gurobi 10.0.1 (win64) logging started Sat Dec 30 18:21:24 2023

Set parameter LogFile to value "outputs/THESIS/symmetry1/gurobi/20weeks.txt"

Gurobi 10.0.1 (win64) logging started Sat Dec 30 18:21:32 2023

Set parameter LogFile to value "outputs/THESIS/symmetry1/gurobi/20weeks.txt"
Gurobi Optimizer version 10.0.1 build v10.0.1rc0 (win64)

CPU model: AMD Ryzen 7 5700U with Radeon Graphics, instruction set [SSE2|AVX|AVX2]
Thread count: 8 physical cores, 16 logical processors, using up to 16 threads

Optimize a model with 426722 rows, 574669 columns and 1868269 nonzeros
Model fingerprint: 0xf6fbaee6
Coefficient statistics:
  Matrix range     [1e-04, 1e+04]
  Objective range  [1e+00, 1e+00]
  Bounds range     [1e+02, 7e+04]
  RHS range        [1e+03, 7e+04]
Presolve removed 2 rows and 2 columns
Presolve time: 0.88s
Presolved: 426720 rows, 574667 columns, 1441440 nonzeros

Ordering time: 0.02s

Barrier statistics:
 Dense cols : 20
 AA' NZ     : 2.822e+05
 Factor NZ  : 2.796e+06 (roughly 200 MB of memory)
 Factor Ops : 6.976e+07 (less than 1 second per iteration)
 Threads    : 8

                  Objective                Residual
Iter       Primal          Dual         Primal    Dual     Compl     Time
   0   7.58897979e+09 -4.89104814e+10  2.25e+04 9.42e+00  9.45e+05     2s
   1   1.58012859e+09 -3.75126522e+10  1.84e+03 1.76e+00  1.16e+05     2s
   2   1.02861206e+09 -8.20983259e+09  3.11e+00 1.22e-01  1.65e+04     2s
   3   2.01382858e+08 -3.00457922e+08  9.09e-12 1.33e-13  8.91e+02     2s
   4   8.82624666e+07 -2.78322104e+07  4.37e-11 1.64e-14  2.06e+02     2s
   5   6.23304237e+07 -6.87001816e+06  1.02e-10 1.12e-14  1.23e+02     3s
   6   4.53099644e+07  1.94018915e+06  6.80e-10 9.81e-15  7.69e+01     3s
   7   3.67682801e+07  5.28711755e+06  1.11e-09 9.24e-15  5.58e+01     3s
   8   3.59134425e+07  5.95587162e+06  1.20e-09 9.19e-15  5.31e+01     3s
   9   3.43252207e+07  6.43917419e+06  6.30e-09 9.16e-15  4.94e+01     3s
  10   3.00999033e+07  7.67416464e+06  1.28e-08 8.87e-15  3.97e+01     3s
  11   2.61811918e+07  8.76690897e+06  1.23e-08 9.38e-15  3.09e+01     3s
  12   2.43165903e+07  9.17358942e+06  1.55e-08 8.85e-15  2.68e+01     3s
  13   2.24380241e+07  9.56495523e+06  3.91e-08 9.52e-15  2.28e+01     3s
  14   1.95967892e+07  1.05046991e+07  4.83e-08 9.17e-15  1.61e+01     4s
  15   1.70477303e+07  1.12749836e+07  6.78e-08 8.35e-15  1.02e+01     4s
  16   1.64951047e+07  1.16007787e+07  5.66e-08 1.07e-14  8.67e+00     4s
  17   1.58647485e+07  1.17288362e+07  5.17e-08 9.04e-15  7.33e+00     4s
  18   1.52471964e+07  1.20270709e+07  2.88e-08 9.12e-15  5.71e+00     4s
  19   1.47029958e+07  1.22443258e+07  7.89e-08 9.78e-15  4.36e+00     4s
  20   1.45398104e+07  1.23532478e+07  9.33e-08 8.68e-15  3.87e+00     4s
  21   1.40369886e+07  1.24232144e+07  1.04e-07 8.47e-15  2.86e+00     4s
  22   1.36494259e+07  1.25192682e+07  9.54e-08 8.65e-15  2.00e+00     5s
  23   1.34694904e+07  1.26136064e+07  3.47e-08 9.48e-15  1.52e+00     5s
  24   1.32093245e+07  1.26623537e+07  1.06e-07 1.06e-14  9.69e-01     5s
  25   1.31919243e+07  1.26692602e+07  8.46e-08 1.04e-14  9.26e-01     5s
  26   1.31266016e+07  1.26741734e+07  6.91e-08 9.24e-15  8.02e-01     5s
  27   1.30726192e+07  1.26918253e+07  8.39e-08 1.02e-14  6.75e-01     5s
  28   1.29058779e+07  1.27064047e+07  1.32e-07 9.67e-15  3.53e-01     5s
  29   1.28352071e+07  1.27157815e+07  9.71e-08 8.91e-15  2.12e-01     5s
  30   1.27947474e+07  1.27262154e+07  1.47e-07 9.70e-15  1.21e-01     6s
  31   1.27808853e+07  1.27295871e+07  1.83e-07 9.49e-15  9.09e-02     6s
  32   1.27667561e+07  1.27323033e+07  2.10e-07 1.07e-14  6.10e-02     6s
  33   1.27550676e+07  1.27334239e+07  1.32e-07 9.11e-15  3.83e-02     6s
  34   1.27481846e+07  1.27340431e+07  8.58e-08 1.42e-14  2.51e-02     6s
  35   1.27445855e+07  1.27344733e+07  6.18e-08 9.55e-15  1.79e-02     6s
  36   1.27380347e+07  1.27349261e+07  1.76e-08 9.96e-15  5.51e-03     6s
  37   1.27360367e+07  1.27351093e+07  4.25e-09 9.99e-15  1.64e-03     6s
  38   1.27355644e+07  1.27352596e+07  1.29e-09 1.08e-14  5.40e-04     6s
  39   1.27353891e+07  1.27353130e+07  2.57e-10 1.03e-14  1.35e-04     6s
  40   1.27353480e+07  1.27353367e+07  3.09e-11 6.14e-12  2.00e-05     7s
  41   1.27353440e+07  1.27353406e+07  1.00e-11 6.28e-12  6.15e-06     7s
  42   1.27353420e+07  1.27353418e+07  7.28e-12 3.82e-12  2.53e-07     7s
  43   1.27353419e+07  1.27353419e+07  1.68e-11 4.62e-11  6.13e-12     7s

Barrier solved model in 43 iterations and 6.91 seconds (5.24 work units)
Optimal objective 1.27353419e+07

Crossover log...

    7381 DPushes remaining with DInf 0.0000000e+00                 7s
       0 DPushes remaining with DInf 0.0000000e+00                 7s

    1118 PPushes remaining with PInf 0.0000000e+00                 7s
       0 PPushes remaining with PInf 0.0000000e+00                 7s

  Push phase complete: Pinf 0.0000000e+00, Dinf 2.4380252e-10      7s

Iteration    Objective       Primal Inf.    Dual Inf.      Time
    5186    1.2735342e+07   0.000000e+00   0.000000e+00      7s

Use crossover to convert LP symmetric solution to basic solution...
Crossover log...

    4388 DPushes remaining with DInf 0.0000000e+00                 8s
       0 DPushes remaining with DInf 0.0000000e+00                 9s

  229795 PPushes remaining with PInf 0.0000000e+00                 9s
       0 PPushes remaining with PInf 0.0000000e+00                10s

  Push phase complete: Pinf 0.0000000e+00, Dinf 1.8728320e+02     10s

Iteration    Objective       Primal Inf.    Dual Inf.      Time
  239281    1.2735342e+07   0.000000e+00   1.872832e+02     10s
  239297    1.2735342e+07   0.000000e+00   0.000000e+00     11s

Solved in 239297 iterations and 10.79 seconds (9.21 work units)
Optimal objective  1.273534193e+07

User-callback calls 243517, time in user-callback 0.03 sec

Gurobi 10.0.1 (win64) logging started Sat Dec 30 18:21:46 2023

Set parameter LogFile to value "outputs/THESIS/symmetry1/gurobi/20weeks.txt"

Gurobi 10.0.1 (win64) logging started Sat Dec 30 18:21:53 2023

Set parameter LogFile to value "outputs/THESIS/symmetry1/gurobi/20weeks.txt"
Gurobi Optimizer version 10.0.1 build v10.0.1rc0 (win64)

CPU model: AMD Ryzen 7 5700U with Radeon Graphics, instruction set [SSE2|AVX|AVX2]
Thread count: 8 physical cores, 16 logical processors, using up to 16 threads

Optimize a model with 426722 rows, 574669 columns and 1868269 nonzeros
Model fingerprint: 0xf6fbaee6
Coefficient statistics:
  Matrix range     [1e-04, 1e+04]
  Objective range  [1e+00, 1e+00]
  Bounds range     [1e+02, 7e+04]
  RHS range        [1e+03, 7e+04]
Presolve removed 2 rows and 2 columns
Presolve time: 0.87s
Presolved: 426720 rows, 574667 columns, 1441440 nonzeros

Ordering time: 0.03s

Barrier statistics:
 Dense cols : 20
 AA' NZ     : 2.822e+05
 Factor NZ  : 2.796e+06 (roughly 200 MB of memory)
 Factor Ops : 6.976e+07 (less than 1 second per iteration)
 Threads    : 8

                  Objective                Residual
Iter       Primal          Dual         Primal    Dual     Compl     Time
   0   7.58897979e+09 -4.89104814e+10  2.25e+04 9.42e+00  9.45e+05     2s
   1   1.58012859e+09 -3.75126522e+10  1.84e+03 1.76e+00  1.16e+05     2s
   2   1.02861206e+09 -8.20983259e+09  3.11e+00 1.22e-01  1.65e+04     2s
   3   2.01382858e+08 -3.00457922e+08  9.09e-12 1.33e-13  8.91e+02     2s
   4   8.82624666e+07 -2.78322104e+07  4.37e-11 1.64e-14  2.06e+02     2s
   5   6.23304237e+07 -6.87001816e+06  1.02e-10 1.12e-14  1.23e+02     3s
   6   4.53099644e+07  1.94018915e+06  6.80e-10 9.81e-15  7.69e+01     3s
   7   3.67682801e+07  5.28711755e+06  1.11e-09 9.24e-15  5.58e+01     3s
   8   3.59134425e+07  5.95587162e+06  1.20e-09 9.19e-15  5.31e+01     3s
   9   3.43252207e+07  6.43917419e+06  6.30e-09 9.16e-15  4.94e+01     3s
  10   3.00999033e+07  7.67416464e+06  1.28e-08 8.87e-15  3.97e+01     3s
  11   2.61811918e+07  8.76690897e+06  1.23e-08 9.38e-15  3.09e+01     3s
  12   2.43165903e+07  9.17358942e+06  1.55e-08 8.85e-15  2.68e+01     3s
  13   2.24380241e+07  9.56495523e+06  3.91e-08 9.52e-15  2.28e+01     3s
  14   1.95967892e+07  1.05046991e+07  4.83e-08 9.17e-15  1.61e+01     4s
  15   1.70477303e+07  1.12749836e+07  6.78e-08 8.35e-15  1.02e+01     4s
  16   1.64951047e+07  1.16007787e+07  5.66e-08 1.07e-14  8.67e+00     4s
  17   1.58647485e+07  1.17288362e+07  5.17e-08 9.04e-15  7.33e+00     4s
  18   1.52471964e+07  1.20270709e+07  2.88e-08 9.12e-15  5.71e+00     4s
  19   1.47029958e+07  1.22443258e+07  7.89e-08 9.78e-15  4.36e+00     4s
  20   1.45398104e+07  1.23532478e+07  9.33e-08 8.68e-15  3.87e+00     4s
  21   1.40369886e+07  1.24232144e+07  1.04e-07 8.47e-15  2.86e+00     4s
  22   1.36494259e+07  1.25192682e+07  9.54e-08 8.65e-15  2.00e+00     5s
  23   1.34694904e+07  1.26136064e+07  3.47e-08 9.48e-15  1.52e+00     5s
  24   1.32093245e+07  1.26623537e+07  1.06e-07 1.06e-14  9.69e-01     5s
  25   1.31919243e+07  1.26692602e+07  8.46e-08 1.04e-14  9.26e-01     5s
  26   1.31266016e+07  1.26741734e+07  6.91e-08 9.24e-15  8.02e-01     5s
  27   1.30726192e+07  1.26918253e+07  8.39e-08 1.02e-14  6.75e-01     5s
  28   1.29058779e+07  1.27064047e+07  1.32e-07 9.67e-15  3.53e-01     5s
  29   1.28352071e+07  1.27157815e+07  9.71e-08 8.91e-15  2.12e-01     5s
  30   1.27947474e+07  1.27262154e+07  1.47e-07 9.70e-15  1.21e-01     6s
  31   1.27808853e+07  1.27295871e+07  1.83e-07 9.49e-15  9.09e-02     6s
  32   1.27667561e+07  1.27323033e+07  2.10e-07 1.07e-14  6.10e-02     6s
  33   1.27550676e+07  1.27334239e+07  1.32e-07 9.11e-15  3.83e-02     6s
  34   1.27481846e+07  1.27340431e+07  8.58e-08 1.42e-14  2.51e-02     6s
  35   1.27445855e+07  1.27344733e+07  6.18e-08 9.55e-15  1.79e-02     6s
  36   1.27380347e+07  1.27349261e+07  1.76e-08 9.96e-15  5.51e-03     6s
  37   1.27360367e+07  1.27351093e+07  4.25e-09 9.99e-15  1.64e-03     6s
  38   1.27355644e+07  1.27352596e+07  1.29e-09 1.08e-14  5.40e-04     6s
  39   1.27353891e+07  1.27353130e+07  2.57e-10 1.03e-14  1.35e-04     6s
  40   1.27353480e+07  1.27353367e+07  3.09e-11 6.14e-12  2.00e-05     7s
  41   1.27353440e+07  1.27353406e+07  1.00e-11 6.28e-12  6.15e-06     7s
  42   1.27353420e+07  1.27353418e+07  7.28e-12 3.82e-12  2.53e-07     7s
  43   1.27353419e+07  1.27353419e+07  1.68e-11 4.62e-11  6.13e-12     7s

Barrier solved model in 43 iterations and 6.88 seconds (5.24 work units)
Optimal objective 1.27353419e+07

Crossover log...

    7381 DPushes remaining with DInf 0.0000000e+00                 7s
       0 DPushes remaining with DInf 0.0000000e+00                 7s

    1118 PPushes remaining with PInf 0.0000000e+00                 7s
       0 PPushes remaining with PInf 0.0000000e+00                 7s

  Push phase complete: Pinf 0.0000000e+00, Dinf 2.4380252e-10      7s

Iteration    Objective       Primal Inf.    Dual Inf.      Time
    5186    1.2735342e+07   0.000000e+00   0.000000e+00      7s

Use crossover to convert LP symmetric solution to basic solution...
Crossover log...

    4388 DPushes remaining with DInf 0.0000000e+00                 8s
       0 DPushes remaining with DInf 0.0000000e+00                 9s

  229795 PPushes remaining with PInf 0.0000000e+00                 9s
       0 PPushes remaining with PInf 0.0000000e+00                10s

  Push phase complete: Pinf 0.0000000e+00, Dinf 1.8728320e+02     10s

Iteration    Objective       Primal Inf.    Dual Inf.      Time
  239281    1.2735342e+07   0.000000e+00   1.872832e+02     10s
  239297    1.2735342e+07   0.000000e+00   0.000000e+00     11s

Solved in 239297 iterations and 11.01 seconds (9.21 work units)
Optimal objective  1.273534193e+07

User-callback calls 243514, time in user-callback 0.04 sec

Gurobi 10.0.1 (win64) logging started Sat Dec 30 18:22:07 2023

Set parameter LogFile to value "outputs/THESIS/symmetry1/gurobi/20weeks.txt"

Gurobi 10.0.1 (win64) logging started Sat Dec 30 18:22:15 2023

Set parameter LogFile to value "outputs/THESIS/symmetry1/gurobi/20weeks.txt"
Gurobi Optimizer version 10.0.1 build v10.0.1rc0 (win64)

CPU model: AMD Ryzen 7 5700U with Radeon Graphics, instruction set [SSE2|AVX|AVX2]
Thread count: 8 physical cores, 16 logical processors, using up to 16 threads

Optimize a model with 426722 rows, 574669 columns and 1868269 nonzeros
Model fingerprint: 0xf6fbaee6
Coefficient statistics:
  Matrix range     [1e-04, 1e+04]
  Objective range  [1e+00, 1e+00]
  Bounds range     [1e+02, 7e+04]
  RHS range        [1e+03, 7e+04]
Presolve removed 2 rows and 2 columns
Presolve time: 0.88s
Presolved: 426720 rows, 574667 columns, 1441440 nonzeros

Ordering time: 0.03s

Barrier statistics:
 Dense cols : 20
 AA' NZ     : 2.822e+05
 Factor NZ  : 2.796e+06 (roughly 200 MB of memory)
 Factor Ops : 6.976e+07 (less than 1 second per iteration)
 Threads    : 8

                  Objective                Residual
Iter       Primal          Dual         Primal    Dual     Compl     Time
   0   7.58897979e+09 -4.89104814e+10  2.25e+04 9.42e+00  9.45e+05     2s
   1   1.58012859e+09 -3.75126522e+10  1.84e+03 1.76e+00  1.16e+05     2s
   2   1.02861206e+09 -8.20983259e+09  3.11e+00 1.22e-01  1.65e+04     2s
   3   2.01382858e+08 -3.00457922e+08  9.09e-12 1.33e-13  8.91e+02     2s
   4   8.82624666e+07 -2.78322104e+07  4.37e-11 1.64e-14  2.06e+02     3s
   5   6.23304237e+07 -6.87001816e+06  1.02e-10 1.12e-14  1.23e+02     3s
   6   4.53099644e+07  1.94018915e+06  6.80e-10 9.81e-15  7.69e+01     3s
   7   3.67682801e+07  5.28711755e+06  1.11e-09 9.24e-15  5.58e+01     3s
   8   3.59134425e+07  5.95587162e+06  1.20e-09 9.19e-15  5.31e+01     3s
   9   3.43252207e+07  6.43917419e+06  6.30e-09 9.16e-15  4.94e+01     3s
  10   3.00999033e+07  7.67416464e+06  1.28e-08 8.87e-15  3.97e+01     3s
  11   2.61811918e+07  8.76690897e+06  1.23e-08 9.38e-15  3.09e+01     3s
  12   2.43165903e+07  9.17358942e+06  1.55e-08 8.85e-15  2.68e+01     3s
  13   2.24380241e+07  9.56495523e+06  3.91e-08 9.52e-15  2.28e+01     4s
  14   1.95967892e+07  1.05046991e+07  4.83e-08 9.17e-15  1.61e+01     4s
  15   1.70477303e+07  1.12749836e+07  6.78e-08 8.35e-15  1.02e+01     4s
  16   1.64951047e+07  1.16007787e+07  5.66e-08 1.07e-14  8.67e+00     4s
  17   1.58647485e+07  1.17288362e+07  5.17e-08 9.04e-15  7.33e+00     4s
  18   1.52471964e+07  1.20270709e+07  2.88e-08 9.12e-15  5.71e+00     4s
  19   1.47029958e+07  1.22443258e+07  7.89e-08 9.78e-15  4.36e+00     4s
  20   1.45398104e+07  1.23532478e+07  9.33e-08 8.68e-15  3.87e+00     4s
  21   1.40369886e+07  1.24232144e+07  1.04e-07 8.47e-15  2.86e+00     5s
  22   1.36494259e+07  1.25192682e+07  9.54e-08 8.65e-15  2.00e+00     5s
  23   1.34694904e+07  1.26136064e+07  3.47e-08 9.48e-15  1.52e+00     5s
  24   1.32093245e+07  1.26623537e+07  1.06e-07 1.06e-14  9.69e-01     5s
  25   1.31919243e+07  1.26692602e+07  8.46e-08 1.04e-14  9.26e-01     5s
  26   1.31266016e+07  1.26741734e+07  6.91e-08 9.24e-15  8.02e-01     5s
  27   1.30726192e+07  1.26918253e+07  8.39e-08 1.02e-14  6.75e-01     5s
  28   1.29058779e+07  1.27064047e+07  1.32e-07 9.67e-15  3.53e-01     6s
  29   1.28352071e+07  1.27157815e+07  9.71e-08 8.91e-15  2.12e-01     6s
  30   1.27947474e+07  1.27262154e+07  1.47e-07 9.70e-15  1.21e-01     6s
  31   1.27808853e+07  1.27295871e+07  1.83e-07 9.49e-15  9.09e-02     6s
  32   1.27667561e+07  1.27323033e+07  2.10e-07 1.07e-14  6.10e-02     6s
  33   1.27550676e+07  1.27334239e+07  1.32e-07 9.11e-15  3.83e-02     6s
  34   1.27481846e+07  1.27340431e+07  8.58e-08 1.42e-14  2.51e-02     6s
  35   1.27445855e+07  1.27344733e+07  6.18e-08 9.55e-15  1.79e-02     6s
  36   1.27380347e+07  1.27349261e+07  1.76e-08 9.96e-15  5.51e-03     6s
  37   1.27360367e+07  1.27351093e+07  4.25e-09 9.99e-15  1.64e-03     6s
  38   1.27355644e+07  1.27352596e+07  1.29e-09 1.08e-14  5.40e-04     7s
  39   1.27353891e+07  1.27353130e+07  2.57e-10 1.03e-14  1.35e-04     7s
  40   1.27353480e+07  1.27353367e+07  3.09e-11 6.14e-12  2.00e-05     7s
  41   1.27353440e+07  1.27353406e+07  1.00e-11 6.28e-12  6.15e-06     7s
  42   1.27353420e+07  1.27353418e+07  7.28e-12 3.82e-12  2.53e-07     7s
  43   1.27353419e+07  1.27353419e+07  1.68e-11 4.62e-11  6.13e-12     7s

Barrier solved model in 43 iterations and 7.06 seconds (5.24 work units)
Optimal objective 1.27353419e+07

Crossover log...

    7381 DPushes remaining with DInf 0.0000000e+00                 7s
       0 DPushes remaining with DInf 0.0000000e+00                 7s

    1118 PPushes remaining with PInf 0.0000000e+00                 7s
       0 PPushes remaining with PInf 0.0000000e+00                 7s

  Push phase complete: Pinf 0.0000000e+00, Dinf 2.4380252e-10      8s

Iteration    Objective       Primal Inf.    Dual Inf.      Time
    5186    1.2735342e+07   0.000000e+00   0.000000e+00      8s

Use crossover to convert LP symmetric solution to basic solution...
Crossover log...

    4388 DPushes remaining with DInf 0.0000000e+00                 8s
       0 DPushes remaining with DInf 0.0000000e+00                 9s

  229795 PPushes remaining with PInf 0.0000000e+00                 9s
      78 PPushes remaining with PInf 0.0000000e+00                10s
       0 PPushes remaining with PInf 0.0000000e+00                10s

  Push phase complete: Pinf 0.0000000e+00, Dinf 1.8728320e+02     10s

Iteration    Objective       Primal Inf.    Dual Inf.      Time
  239281    1.2735342e+07   0.000000e+00   1.872832e+02     11s
  239297    1.2735342e+07   0.000000e+00   0.000000e+00     11s

Solved in 239297 iterations and 11.07 seconds (9.21 work units)
Optimal objective  1.273534193e+07

User-callback calls 243523, time in user-callback 0.04 sec
